<instance format="XCSP3" type="CSP">
  <variables>
    <var id="x0"> 0 1 8 10 </var>
    <var id="x1"> 1 5 8 10 11 </var>
    <var id="x2"> 5 8 11 </var>
    <var id="x3"> 1 2 10 14 </var>
    <var id="x4"> 0..2 8 </var>
    <var id="x5"> 0 1 5 8 14 </var>
    <var id="x6"> 2 8 10 11 14 </var>
    <var id="x7"> 2 8 14 </var>
    <var id="x8"> 0 1 4 12 </var>
    <var id="x9"> 4 11 </var>
    <var id="x10"> 1 12..14 </var>
    <var id="x11"> 0 4 12 13 </var>
    <var id="x12"> 0 4 11 14 </var>
    <var id="x13"> 12..14 </var>
    <var id="x14"> 11 12 14 </var>
    <var id="x15"> 1 4 9 12 </var>
    <var id="x16"> 1 </var>
    <var id="x17"> 4 6 12 </var>
    <var id="x18"> 1 2 4 12 </var>
    <var id="x19"> 1 12 14 </var>
    <var id="x20"> 2 12 14 </var>
    <var id="x21"> 2 6 9 12 14 </var>
    <var id="x22"> 6 7 </var>
    <var id="x23"> 10 14 </var>
    <var id="x24"> 1 12 13 </var>
    <var id="x25"> 1 12..14 </var>
    <var id="x26"> 1 7 12 14 </var>
    <var id="x27"> 1 12 </var>
    <var id="x28"> 7 10 12 14 </var>
    <var id="x29"> 3 5 8 11 13 </var>
    <var id="x30"> 3 4 12 13 </var>
    <var id="x31"> 4 8 11 </var>
    <var id="x32"> 3..5 8 12 </var>
    <var id="x33"> 4 5 8 12 </var>
    <var id="x34"> 8 11 12 </var>
    <var id="x35"> 8 11 12 </var>
    <var id="x36"> 1 4 8 </var>
    <var id="x37"> 1 13 </var>
    <var id="x38"> 1 4 8 13 </var>
    <var id="x39"> 1 4..6 8 </var>
    <var id="x40"> 1 5 8 13 </var>
    <var id="x41"> 6 8 13 </var>
    <var id="x42"> 7 8 </var>
    <var id="x43"> 3 7 8 11 </var>
    <var id="x44"> 1 3 12 13 </var>
    <var id="x45"> 3 7 12 13 </var>
    <var id="x46"> 8 11 </var>
    <var id="x47"> 8 12 </var>
    <var id="x48"> 1 8 12 13 </var>
    <var id="x49"> 7 8 11 12 </var>
    <var id="x50"> 4 8 9 12 </var>
    <var id="x51"> 2 12 14 </var>
    <var id="x52"> 2 4 8 11 14 </var>
    <var id="x53"> 4 8 9 12 </var>
    <var id="x54"> 8 11 12 14 </var>
    <var id="x55"> 2 4 9 11 12 </var>
    <var id="x56"> 2 8 9 12 14 </var>
    <var id="x57"> 8 9 12 </var>
    <var id="x58"> 3 5 8 11 </var>
    <var id="x59"> 3 12 14 </var>
    <var id="x60"> 3 5 8 12 </var>
    <var id="x61"> 5 8 9 12 </var>
    <var id="x62"> 5 8 12 14 </var>
    <var as="x54" id="x63"/>
    <var id="x64"> 4 8 </var>
    <var id="x65"> 2 10 12 </var>
    <var id="x66"> 0 2 4 8 12 </var>
    <var id="x67"> 4 8 12 </var>
    <var id="x68"> 0 4 8..10 12 </var>
    <var id="x69"> 2 4 9 12 </var>
    <var id="x70"> 2 8 9 12 </var>
    <var id="x71"> 0 1 8 10 </var>
    <var id="x72"> 0 3 </var>
    <var id="x73"> 1 3 8 </var>
    <var id="x74"> 0 1 8 11 </var>
    <var id="x75"> 1..3 11 </var>
    <var id="x76"> 2 8 10 11 </var>
    <var id="x77"> 2 8 10 11 </var>
    <var id="x78"> 8 10 13 </var>
    <var id="x79"> 4 8 10 14 </var>
    <var id="x80"> 4 8 12 </var>
    <var id="x81"> 8 12..14 </var>
    <var id="x82"> 4 12 </var>
    <var id="x83"> 7 8 10 12 14 </var>
    <var as="x83" id="x84"/>
    <var id="x85"> 3 5 8 10 </var>
    <var id="x86"> 0 3 12 </var>
    <var id="x87"> 0 8 12 </var>
    <var id="x88"> 0 5 8..10 12 </var>
    <var id="x89"> 0 8 12 </var>
    <var id="x90"> 3 9 12 </var>
    <var id="x91"> 8..10 12 </var>
    <var id="x92"> 8 </var>
    <var id="x93"> 4 6..8 </var>
    <var id="x94"> 0 4 6 7 12 </var>
    <var id="x95"> 0 8 12 </var>
    <var id="x96"> 2 4 12 </var>
    <var id="x97"> 2 6 8 12 </var>
    <var id="x98"> 2 7 8 12 </var>
    <var id="x99"> 3 8 </var>
    <var id="x100"> 0 2 8 10 </var>
    <var id="x101"> 0..2 8 12 </var>
    <var id="x102"> 1 3 8 12 </var>
    <var id="x103"> 0 8 10 12 </var>
    <var id="x104"> 0 1 8 12 </var>
    <var id="x105"> 2 8 10 12 </var>
  </variables>
  <constraints>
    <group>
      <allDifferent> %... </allDifferent>
      <args> x0 x1 x2 x3 x4 x5 x6 x7 </args>
      <args> x8 x9 x10 x11 x12 x13 x14 </args>
      <args> x15 x16 x17 x18 x19 x20 x21 </args>
      <args> x22 x23 x24 x25 x26 x27 x28 </args>
      <args> x29 x30 x31 x32 x33 x34 x35 </args>
      <args> x36 x37 x38 x39 x40 x41 x42 </args>
      <args> x43 x44 x45 x46 x47 x48 x49 </args>
      <args> x50 x51 x52 x53 x54 x55 x56 </args>
      <args> x57 x58 x59 x60 x61 x62 x63 </args>
      <args> x64 x65 x66 x67 x68 x69 x70 </args>
      <args> x71 x72 x73 x74 x75 x76 x77 </args>
      <args> x78 x79 x80 x81 x82 x83 x84 </args>
      <args> x85 x86 x87 x88 x89 x90 x91 </args>
      <args> x92 x93 x94 x95 x96 x97 x98 </args>
      <args> x99 x100 x101 x102 x103 x104 x105 </args>
      <args> x0 x8 x15 x36 x50 x57 x71 </args>
      <args> x1 x16 x29 x58 x78 x85 x92 </args>
      <args> x2 x9 x22 x43 x64 x93 x99 </args>
      <args> x3 x10 x37 x44 x51 x59 x65 </args>
      <args> x11 x17 x30 x45 x72 x86 x94 </args>
      <args> x12 x23 x31 x46 x52 x79 x100 </args>
      <args> x4 x18 x24 x38 x66 x87 x101 </args>
      <args> x32 x39 x60 x67 x73 x80 x102 </args>
      <args> x33 x47 x53 x61 x68 x88 x103 </args>
      <args> x5 x25 x40 x48 x62 x81 x95 </args>
      <args> x19 x26 x34 x54 x74 x89 x104 </args>
      <args> x27 x55 x69 x75 x82 x90 x96 </args>
      <args> x6 x20 x28 x49 x63 x76 x83 </args>
      <args> x7 x13 x21 x41 x56 x70 x97 </args>
      <args> x14 x35 x42 x77 x84 x91 x98 x105 </args>
    </group>
  </constraints>
</instance>

